NAME: Random_70_1
ELLAPSED_TIME_(ms): 2
TOUR_SIZE: 2013.3236
TOUR_SECTION
0
53
5
22
9
65
38
49
47
37
67
6
51
35
12
17
32
27
69
21
14
28
2
66
39
50
58
46
10
36
19
33
8
25
55
30
13
45
7
31
52
15
29
43
57
60
1
54
16
44
68
64
40
26
18
63
20
24
3
41
4
59
48
34
56
23
11
61
42
62
0
EOF
